Optimizer called with the following parameters:
{'focal_plane_mask': {'field_stop_radius': None,
                      'grayscale': True,
                      'num_pix': 150,
                      'radius': 3.9000000000000004},
 'image': {'bandwidth': 0.15,
           'contrast': 10,
           'iwa': 3.8000000000000003,
           'num_wavelengths': 5,
           'owa': 14.0,
           'resolution': 2},
 'instrument': {'inst_name': 'USORT'},
 'lyot_stop': {'alignment_tolerance': 0,
               'filename': 'USORT/LS_USORT_hex_ID0000_OD0990_ovsamp16_N0128.fits',
               'num_lyot_stops': 1},
 'method': {'edge_width_for_prior': 2,
            'ending_scale': 1,
            'force_no_hermitian_symmetry': False,
            'force_no_x_mirror_symmetry': False,
            'force_no_y_mirror_symmetry': False,
            'initial_throughput_estimate': 1,
            'maximize_planet_throughput': True,
            'num_throughput_iterations': 2,
            'starting_scale': 1},
 'pupil': {'N': 128,
           'filename': 'USORT/TelAp_USORT_offaxis_ovsamp16_N0128.fits'},
 'solver': {'crossover': 0,
            'method': 2,
            'num_threads': 0}}

File organization:
{'analysis_dir': '/user/bnickson/GitHub/LUVex_TelAps/aplc_optimization/surveys/usort_offaxis_survey_N0128_telserv3/FPM39_IWA38/analysis',
 'drivers_dir': '/user/bnickson/GitHub/LUVex_TelAps/aplc_optimization/surveys/usort_offaxis_survey_N0128_telserv3/FPM39_IWA38/drivers',
 'input_files_dir': '/user/bnickson/GitHub/LUVex_TelAps/aplc_optimization/masks',
 'log_dir': '/user/bnickson/GitHub/LUVex_TelAps/aplc_optimization/surveys/usort_offaxis_survey_N0128_telserv3/FPM39_IWA38/logs',
 'solution_dir': '/user/bnickson/GitHub/LUVex_TelAps/aplc_optimization/surveys/usort_offaxis_survey_N0128_telserv3/FPM39_IWA38/solutions',
 'survey_dir': '/user/bnickson/GitHub/LUVex_TelAps/aplc_optimization/surveys/usort_offaxis_survey_N0128_telserv3/FPM39_IWA38'}

Telescope pupil:
   Mirror symmetry in x: yes
   Mirror symmetry in y: yes

Lyot stop #0:
   Mirror symmetry in x: yes
Lyot stop #0:
   Mirror symmetry in y: yes

Complete APLC:
   Mirror symmetry in x: yes
   Mirror symmetry in y: yes

Starting optimization at scale 1 with 2726 variables and 2865 constraints.
Creating model...
Set parameter Username
Academic license - for non-commercial use only - expires 2024-10-25
Set parameter Crossover to value 0
Set parameter Method to value 2
Calculating and adding constraints...
Wavelength 1/5; Variable 1000/2726
Wavelength 1/5; Variable 2000/2726
Wavelength 2/5; Variable 1000/2726
Wavelength 2/5; Variable 2000/2726
Wavelength 3/5; Variable 1000/2726
Wavelength 3/5; Variable 2000/2726
Wavelength 4/5; Variable 1000/2726
Wavelength 4/5; Variable 2000/2726
Wavelength 5/5; Variable 1000/2726
Wavelength 5/5; Variable 2000/2726
Start optimization...
Gurobi Optimizer version 10.0.3 build v10.0.3rc0 (linux64)

CPU model: Intel(R) Xeon(R) Gold 6146 CPU @ 3.20GHz, instruction set [SSE2|AVX|AVX2|AVX512]
Thread count: 24 physical cores, 48 logical processors, using up to 24 threads

Optimize a model with 5730 rows, 2726 columns and 15619980 nonzeros
Model fingerprint: 0x11f6ae43
Coefficient statistics:
  Matrix range     [2e-12, 6e-04]
  Objective range  [4e-03, 1e+00]
  Bounds range     [1e+00, 1e+00]
  RHS range        [1e-05, 1e-05]
Presolve removed 0 rows and 0 columns (presolve time = 5s) ...
Presolve time: 5.43s
Presolved: 2726 rows, 8456 columns, 15622706 nonzeros
Error: invalid user locale; possible fix is to set the system environment
       variable 'LC_ALL' to a valid locale (e.g., to 'C')
Ordering time: 0.04s

Barrier statistics:
 AA' NZ     : 3.714e+06
 Factor NZ  : 3.717e+06 (roughly 34 MB of memory)
 Factor Ops : 6.756e+09 (less than 1 second per iteration)
 Threads    : 24

                  Objective                Residual
Iter       Primal          Dual         Primal    Dual     Compl     Time
   0   5.52109855e+03  0.00000000e+00  0.00e+00 0.00e+00  9.58e-01     7s
   1   2.91123179e+03  7.15263359e+02  0.00e+00 1.46e-01  3.28e-01     8s
   2   2.04406195e+03  1.38644577e+03  0.00e+00 4.29e-02  9.12e-02     8s
   3   1.73548952e+03  1.44005994e+03  0.00e+00 2.30e-02  3.99e-02     9s
   4   1.64282740e+03  1.44930746e+03  0.00e+00 1.94e-02  2.72e-02     9s
   5   1.61393980e+03  1.45453760e+03  0.00e+00 1.69e-02  2.25e-02     9s
   6   1.59050503e+03  1.45745090e+03  0.00e+00 1.54e-02  1.93e-02    10s
   7   1.57008584e+03  1.46193058e+03  0.00e+00 1.25e-02  1.56e-02    10s
   8   1.54990044e+03  1.46396851e+03  0.00e+00 1.09e-02  1.32e-02    10s
   9   1.53464599e+03  1.46364426e+03  0.00e+00 1.04e-02  1.19e-02    11s
  10   1.52118839e+03  1.46348225e+03  0.00e+00 9.65e-03  1.06e-02    11s
  11   1.50654746e+03  1.46346074e+03  0.00e+00 7.15e-03  8.18e-03    11s
  12   1.49334650e+03  1.46243100e+03  0.00e+00 6.58e-03  6.98e-03    12s
  13   1.48342594e+03  1.45950271e+03  0.00e+00 5.53e-03  5.93e-03    12s
  14   1.47982095e+03  1.45890377e+03  0.00e+00 5.36e-03  5.63e-03    12s
  15   1.46703880e+03  1.45708566e+03  0.00e+00 4.86e-03  4.62e-03    13s
  16   1.46147570e+03  1.45501062e+03  0.00e+00 4.26e-03  4.03e-03    13s
  17   1.45008452e+03  1.45260813e+03  0.00e+00 3.77e-03  3.15e-03    13s
  18   1.44339518e+03  1.44909625e+03  0.00e+00 3.04e-03  2.42e-03    14s
  19   1.44076210e+03  1.44785094e+03  0.00e+00 2.85e-03  2.22e-03    14s
  20   1.43831858e+03  1.44655670e+03  0.00e+00 2.66e-03  2.06e-03    15s
  21   1.43550012e+03  1.44452713e+03  0.00e+00 2.34e-03  1.76e-03    15s
  22   1.43338846e+03  1.44331852e+03  0.00e+00 2.19e-03  1.59e-03    16s
  23   1.43221352e+03  1.44205409e+03  0.00e+00 2.04e-03  1.47e-03    16s
  24   1.43065734e+03  1.44137395e+03  0.00e+00 1.96e-03  1.36e-03    17s
  25   1.42862029e+03  1.43713669e+03  0.00e+00 1.40e-03  9.76e-04    17s
  26   1.42786497e+03  1.43632465e+03  0.00e+00 1.31e-03  8.88e-04    18s
  27   1.42774736e+03  1.43582187e+03  0.00e+00 1.25e-03  8.55e-04    18s
  28   1.42725351e+03  1.43514850e+03  0.00e+00 1.19e-03  8.01e-04    19s
  29   1.42611602e+03  1.43279316e+03  0.00e+00 9.49e-04  6.22e-04    19s
  30   1.42483177e+03  1.43040803e+03  0.00e+00 7.00e-04  4.13e-04    20s
  31   1.42422943e+03  1.42828667e+03  0.00e+00 4.84e-04  2.71e-04    20s
  32   1.42387855e+03  1.42728707e+03  0.00e+00 3.88e-04  2.05e-04    20s
  33   1.42376215e+03  1.42671010e+03  0.00e+00 3.33e-04  1.75e-04    21s
  34   1.42363253e+03  1.42569898e+03  0.00e+00 2.36e-04  1.27e-04    21s
  35   1.42355208e+03  1.42520248e+03  0.00e+00 1.89e-04  1.03e-04    21s
  36   1.42341413e+03  1.42492236e+03  2.64e-06 1.62e-04  8.02e-05    22s
  37   1.42333071e+03  1.42431314e+03  6.44e-06 1.04e-04  5.08e-05    23s
  38   1.42326954e+03  1.42396376e+03  1.78e-05 7.14e-05  3.33e-05    24s
  39   1.42325066e+03  1.42379655e+03  1.10e-05 5.59e-05  2.59e-05    25s
  40   1.42324788e+03  1.42372798e+03  9.12e-06 4.95e-05  2.33e-05    26s
  41   1.42324205e+03  1.42352058e+03  1.42e-05 3.05e-05  1.58e-05    27s
  42   1.42324177e+03  1.42351898e+03  2.78e-05 3.03e-05  1.58e-05    28s
  43   1.42323397e+03  1.42343746e+03  2.31e-05 2.27e-05  1.22e-05    30s
  44   1.42323312e+03  1.42342624e+03  2.87e-05 2.17e-05  1.02e-05    31s
  45   1.42323296e+03  1.42342346e+03  2.61e-05 2.14e-05  1.01e-05    31s
  46   1.42323291e+03  1.42342188e+03  2.88e-05 2.13e-05  9.99e-06    33s
  47   1.42323171e+03  1.42340049e+03  3.60e-05 1.93e-05  9.21e-06    35s
  48   1.42322854e+03  1.42338458e+03  3.50e-05 1.78e-05  8.53e-06    37s
  49   1.42322293e+03  1.42334937e+03  5.06e-05 1.45e-05  7.09e-06    38s
  50   1.42322296e+03  1.42334921e+03  4.95e-05 1.45e-05  7.09e-06    39s
  51   1.42322114e+03  1.42326966e+03  6.20e-05 7.10e-06  4.66e-06    40s
  52   1.42322102e+03  1.42326944e+03  8.73e-05 7.08e-06  4.64e-06    41s
  53   1.42321730e+03  1.42326253e+03  1.02e-04 6.44e-06  4.13e-06    42s
  54   1.42321600e+03  1.42325554e+03  1.01e-04 5.80e-06  3.77e-06    43s
  55   1.42321621e+03  1.42325554e+03  1.04e-04 5.80e-06  3.77e-06    45s
  56   1.42321588e+03  1.42325539e+03  1.05e-04 5.78e-06  3.76e-06    50s
  57   1.42321654e+03  1.42325509e+03  1.40e-04 5.75e-06  3.74e-06    53s
  58   1.42321645e+03  1.42325498e+03  1.27e-04 5.75e-06  3.74e-06    59s
  59   1.42321551e+03  1.42325046e+03  1.22e-04 5.33e-06  3.47e-06    66s
  60   1.42321452e+03  1.42325042e+03  1.69e-04 5.32e-06  3.47e-06    70s
  61   1.42321435e+03  1.42324937e+03  1.54e-04 5.23e-06  3.43e-06    74s
  62   1.42321449e+03  1.42324934e+03  1.62e-04 5.22e-06  3.42e-06    79s
  63   1.42321429e+03  1.42324933e+03  2.27e-04 5.22e-06  3.42e-06    83s
  64   1.42321365e+03  1.42324178e+03  1.97e-04 4.53e-06  3.18e-06    90s
  65   1.42321378e+03  1.42324144e+03  2.06e-04 4.49e-06  3.17e-06    94s
  66   1.42321222e+03  1.42324017e+03  2.12e-04 4.38e-06  2.99e-06   100s
  67   1.42321209e+03  1.42323965e+03  2.10e-04 4.33e-06  2.96e-06   105s
  68   1.42321060e+03  1.42323726e+03  1.81e-04 4.11e-06  2.83e-06   111s
  69   1.42321039e+03  1.42323538e+03  1.71e-04 3.93e-06  2.75e-06   116s
  70   1.42321014e+03  1.42323528e+03  1.77e-04 3.92e-06  2.73e-06   121s
  71   1.42320986e+03  1.42323456e+03  1.60e-04 3.86e-06  2.66e-06   128s
  72   1.42320982e+03  1.42323441e+03  1.93e-04 3.84e-06  2.65e-06   134s
  73   1.42320958e+03  1.42323440e+03  1.91e-04 3.84e-06  2.65e-06   139s
  74   1.42320746e+03  1.42323062e+03  2.19e-04 3.49e-06  2.39e-06   147s
  75   1.42320812e+03  1.42323062e+03  2.57e-04 3.49e-06  2.39e-06   152s
  76   1.42320844e+03  1.42322791e+03  1.93e-04 3.24e-06  2.15e-06   161s
  77   1.42320793e+03  1.42322227e+03  2.10e-04 2.72e-06  1.91e-06   168s
  78   1.42320654e+03  1.42321907e+03  1.63e-04 2.43e-06  1.68e-06   175s
  79   1.42320629e+03  1.42321906e+03  1.65e-04 2.43e-06  1.68e-06   180s
  80   1.42320602e+03  1.42321906e+03  1.69e-04 2.43e-06  1.68e-06   186s
  81   1.42320237e+03  1.42321627e+03  2.26e-04 2.17e-06  1.43e-06   195s
  82   1.42320247e+03  1.42321626e+03  2.83e-04 2.17e-06  1.43e-06   200s
  83   1.42320154e+03  1.42321601e+03  2.79e-04 2.15e-06  1.39e-06   205s
  84   1.42320161e+03  1.42321578e+03  2.78e-04 2.12e-06  1.38e-06   211s
  85   1.42320186e+03  1.42321539e+03  2.73e-04 2.09e-06  1.36e-06   217s
  86   1.42320194e+03  1.42321539e+03  2.70e-04 2.09e-06  1.36e-06   223s
  87   1.42320145e+03  1.42321379e+03  2.62e-04 1.94e-06  1.31e-06   227s
  88   1.42320306e+03  1.42321355e+03  4.01e-04 1.92e-06  1.29e-06   232s
  89   1.42320156e+03  1.42321046e+03  3.47e-04 1.62e-06  1.10e-06   236s
  90   1.42320146e+03  1.42321046e+03  3.20e-04 1.62e-06  1.10e-06   238s
  91   1.42320110e+03  1.42320951e+03  3.20e-04 1.54e-06  1.06e-06   241s
  92   1.42320055e+03  1.42320717e+03  2.95e-04 1.32e-06  9.79e-07   244s
  93   1.42320061e+03  1.42320690e+03  2.88e-04 1.30e-06  9.63e-07   248s
  94   1.42320054e+03  1.42320684e+03  2.87e-04 1.29e-06  9.60e-07   251s
  95   1.42320009e+03  1.42320633e+03  2.93e-04 1.25e-06  9.28e-07   255s
  96   1.42320003e+03  1.42320634e+03  4.18e-04 1.25e-06  9.28e-07   259s
  97   1.42319949e+03  1.42320608e+03  3.72e-04 1.22e-06  8.93e-07   263s
  98   1.42319979e+03  1.42320570e+03  3.62e-04 1.19e-06  8.58e-07   267s
  99   1.42319972e+03  1.42320570e+03  3.66e-04 1.19e-06  8.58e-07   271s
 100   1.42319912e+03  1.42320551e+03  3.64e-04 1.17e-06  8.47e-07   274s
 101   1.42319908e+03  1.42320495e+03  3.58e-04 1.12e-06  8.25e-07   278s
 102   1.42319870e+03  1.42320465e+03  3.38e-04 1.09e-06  8.00e-07   282s
 103   1.42319870e+03  1.42320462e+03  3.39e-04 1.09e-06  7.98e-07   285s
 104   1.42319849e+03  1.42320457e+03  3.37e-04 1.08e-06  7.93e-07   288s
 105   1.42319861e+03  1.42320457e+03  3.39e-04 1.08e-06  7.93e-07   292s
 106   1.42319858e+03  1.42320417e+03  3.24e-04 1.05e-06  7.61e-07   295s
 107   1.42319828e+03  1.42320412e+03  3.25e-04 1.04e-06  7.50e-07   299s
 108   1.42319798e+03  1.42320369e+03  3.16e-04 1.00e-06  7.24e-07   302s
 109   1.42319776e+03  1.42320330e+03  3.15e-04 9.68e-07  7.06e-07   306s
 110   1.42319795e+03  1.42320303e+03  2.93e-04 9.42e-07  6.75e-07   310s
 111   1.42319749e+03  1.42320251e+03  2.86e-04 8.95e-07  6.48e-07   313s
 112   1.42319754e+03  1.42320247e+03  2.79e-04 8.91e-07  6.46e-07   316s
 113   1.42319746e+03  1.42320230e+03  2.79e-04 8.76e-07  6.37e-07   321s
 114   1.42319753e+03  1.42320230e+03  2.85e-04 8.76e-07  6.37e-07   325s
 115   1.42319796e+03  1.42320133e+03  2.71e-04 7.94e-07  6.10e-07   328s
 116   1.42319740e+03  1.42320055e+03  2.65e-04 7.21e-07  5.59e-07   331s
 117   1.42319788e+03  1.42320039e+03  2.62e-04 7.07e-07  5.43e-07   335s
 118   1.42319741e+03  1.42319990e+03  2.49e-04 6.61e-07  5.09e-07   338s
 119   1.42319740e+03  1.42319990e+03  2.43e-04 6.61e-07  5.09e-07   341s
 120   1.42319784e+03  1.42319989e+03  2.32e-04 6.61e-07  5.08e-07   344s
 121   1.42319792e+03  1.42319989e+03  2.33e-04 6.61e-07  5.08e-07   349s
 122   1.42319739e+03  1.42319987e+03  2.35e-04 6.58e-07  5.07e-07   354s
 123   1.42319755e+03  1.42319984e+03  2.34e-04 6.56e-07  5.04e-07   358s
 124   1.42319844e+03  1.42319942e+03  2.66e-04 6.17e-07  4.79e-07   363s
 125   1.42319823e+03  1.42319931e+03  3.03e-04 6.07e-07  4.68e-07   369s
 126   1.42319771e+03  1.42319879e+03  2.11e-04 5.58e-07  4.39e-07   372s
 127   1.42319604e+03  1.42319765e+03  3.35e-04 4.53e-07  3.61e-07   374s
 128   1.42319620e+03  1.42319765e+03  3.31e-04 4.53e-07  3.61e-07   375s
 129   1.42319577e+03  1.42319765e+03  2.84e-04 4.53e-07  3.62e-07   377s
 130   1.42319580e+03  1.42319765e+03  2.91e-04 4.53e-07  3.61e-07   378s
 131   1.42319426e+03  1.42319718e+03  3.06e-04 4.10e-07  3.35e-07   379s
 132   1.42319520e+03  1.42319684e+03  3.37e-04 3.78e-07  2.94e-07   381s
 133   1.42319591e+03  1.42319549e+03  3.27e-04 2.51e-07  2.02e-07   382s
 134   1.42319491e+03  1.42319488e+03  3.41e-04 1.94e-07  1.59e-07   383s
 135   1.42319257e+03  1.42319474e+03  3.01e-04 1.81e-07  1.33e-07   384s
 136   1.42319239e+03  1.42319472e+03  2.86e-04 1.80e-07  1.32e-07   385s
 137   1.42319320e+03  1.42319470e+03  2.96e-04 1.78e-07  1.30e-07   386s
 138   1.42319317e+03  1.42319465e+03  2.77e-04 1.73e-07  1.26e-07   387s
 139   1.42319293e+03  1.42319436e+03  2.59e-04 1.46e-07  1.07e-07   388s
 140   1.42319317e+03  1.42319435e+03  2.58e-04 1.46e-07  1.07e-07   389s
 141   1.42319317e+03  1.42319422e+03  2.64e-04 1.34e-07  1.02e-07   389s
 142   1.42319333e+03  1.42319419e+03  2.55e-04 1.31e-07  9.90e-08   390s
 143   1.42319315e+03  1.42319416e+03  2.55e-04 1.29e-07  9.64e-08   390s
 144   1.42319325e+03  1.42319413e+03  2.23e-04 1.25e-07  9.37e-08   391s
 145   1.42319300e+03  1.42319412e+03  2.00e-04 1.25e-07  9.27e-08   392s
 146   1.42319223e+03  1.42319412e+03  2.16e-04 1.25e-07  9.27e-08   392s
 147   1.42319199e+03  1.42319412e+03  2.38e-04 1.25e-07  9.27e-08   393s
 148   1.42319197e+03  1.42319412e+03  2.37e-04 1.25e-07  9.27e-08   394s
 149   1.42319199e+03  1.42319411e+03  2.35e-04 1.23e-07  9.21e-08   395s
 150   1.42319105e+03  1.42319403e+03  2.22e-04 1.16e-07  8.46e-08   396s
 151   1.42319122e+03  1.42319402e+03  2.30e-04 1.15e-07  8.36e-08   397s
 152   1.42319204e+03  1.42319377e+03  2.63e-04 9.28e-08  7.15e-08   399s
 153   1.42319239e+03  1.42319370e+03  2.39e-04 8.63e-08  6.29e-08   401s
 154   1.42319240e+03  1.42319369e+03  2.37e-04 8.48e-08  6.23e-08   402s
 155   1.42319382e+03  1.42319361e+03  1.80e-04 7.81e-08  5.21e-08   404s
 156   1.42319356e+03  1.42319353e+03  2.04e-04 6.97e-08  4.70e-08   405s
 157   1.42319358e+03  1.42319350e+03  2.25e-04 6.76e-08  4.41e-08   406s
 158   1.42319355e+03  1.42319350e+03  2.28e-04 6.76e-08  4.41e-08   407s
 159   1.42319350e+03  1.42319350e+03  2.27e-04 6.76e-08  4.41e-08   408s
 160   1.42319378e+03  1.42319350e+03  2.24e-04 6.75e-08  4.41e-08   409s
 161   1.42319228e+03  1.42319345e+03  2.15e-04 6.22e-08  3.84e-08   413s
 162   1.42319519e+03  1.42319342e+03  2.15e-04 6.02e-08  3.79e-08   414s
 163   1.42319439e+03  1.42319330e+03  2.29e-04 4.89e-08  3.13e-08   416s
 164   1.42319451e+03  1.42319330e+03  2.23e-04 4.89e-08  3.13e-08   417s
 165   1.42319308e+03  1.42319322e+03  2.05e-04 4.28e-08  2.72e-08   419s
 166   1.42319311e+03  1.42319322e+03  2.06e-04 4.28e-08  2.72e-08   420s
 167   1.42319352e+03  1.42319322e+03  2.02e-04 4.28e-08  2.71e-08   421s
 168   1.42319373e+03  1.42319319e+03  1.94e-04 4.09e-08  2.62e-08   425s
 169   1.42319369e+03  1.42319319e+03  2.03e-04 4.07e-08  2.60e-08   426s
 170   1.42319364e+03  1.42319315e+03  1.69e-04 3.62e-08  2.40e-08   428s
 171   1.42319334e+03  1.42319315e+03  1.59e-04 3.61e-08  2.37e-08   430s
 172   1.42319368e+03  1.42319314e+03  5.11e-04 3.55e-08  2.28e-08   431s
 173   1.42319357e+03  1.42319312e+03  4.65e-04 3.34e-08  2.06e-08   432s
 174   1.42319382e+03  1.42319312e+03  4.63e-04 3.34e-08  2.06e-08   434s
 175   1.42319309e+03  1.42319310e+03  4.50e-04 3.20e-08  1.96e-08   435s
 176   1.42319152e+03  1.42319310e+03  6.91e-04 3.20e-08  1.96e-08   437s
 177   1.42319141e+03  1.42319310e+03  6.82e-04 3.19e-08  1.95e-08   438s
 178   1.42319162e+03  1.42319310e+03  6.20e-04 3.14e-08  1.87e-08   440s
 179   1.42319117e+03  1.42319310e+03  6.22e-04 3.14e-08  1.87e-08   441s
 180   1.42319137e+03  1.42319310e+03  6.34e-04 3.14e-08  1.87e-08   442s
 181   1.42319263e+03  1.42319305e+03  5.58e-04 2.71e-08  1.66e-08   443s
 182   1.42319276e+03  1.42319305e+03  5.26e-04 2.67e-08  1.60e-08   444s
 183   1.42319231e+03  1.42319303e+03  4.90e-04 2.53e-08  1.52e-08   446s
 184   1.42319234e+03  1.42319303e+03  4.87e-04 2.50e-08  1.51e-08   447s
 185   1.42319218e+03  1.42319300e+03  4.58e-04 2.27e-08  1.39e-08   448s
 186   1.42319199e+03  1.42319295e+03  4.69e-04 1.86e-08  1.25e-08   451s
 187   1.42319196e+03  1.42319295e+03  4.67e-04 1.86e-08  1.25e-08   456s
 188   1.42319206e+03  1.42319295e+03  6.02e-04 1.86e-08  1.25e-08   460s
 189   1.42319196e+03  1.42319292e+03  5.67e-04 1.59e-08  1.08e-08   464s
 190   1.42319195e+03  1.42319292e+03  5.58e-04 1.59e-08  1.07e-08   469s
 191   1.42319214e+03  1.42319292e+03  5.44e-04 1.59e-08  1.07e-08   474s
 192   1.42319160e+03  1.42319291e+03  4.01e-04 1.41e-08  8.76e-09   487s
 193   1.42319161e+03  1.42319291e+03  4.01e-04 1.41e-08  8.77e-09   492s
 194   1.42319162e+03  1.42319291e+03  4.04e-04 1.40e-08  8.74e-09   498s
 195   1.42319182e+03  1.42319290e+03  3.94e-04 1.33e-08  8.34e-09   504s
 196   1.42319185e+03  1.42319290e+03  3.93e-04 1.33e-08  8.34e-09   510s
 197   1.42319188e+03  1.42319290e+03  3.91e-04 1.33e-08  8.33e-09   514s
 198   1.42319179e+03  1.42319290e+03  3.94e-04 1.33e-08  8.33e-09   519s
 199   1.42319168e+03  1.42319290e+03  4.00e-04 1.33e-08  8.33e-09   522s
 200   1.42319122e+03  1.42319290e+03  4.04e-04 1.31e-08  7.56e-09   527s
 201   1.42319128e+03  1.42319289e+03  3.99e-04 1.30e-08  7.43e-09   530s
 202   1.42319100e+03  1.42319288e+03  4.27e-04 1.14e-08  6.90e-09   541s
 203   1.42319123e+03  1.42319287e+03  4.14e-04 1.08e-08  6.56e-09   547s
 204   1.42319143e+03  1.42319286e+03  3.88e-04 9.97e-09  6.15e-09   555s
 205   1.42319101e+03  1.42319283e+03  3.41e-04 7.52e-09  4.99e-09   569s
 206   1.42319107e+03  1.42319283e+03  3.37e-04 6.90e-09  4.74e-09   577s
 207   1.42319106e+03  1.42319283e+03  4.52e-04 6.80e-09  4.33e-09   584s
 208   1.42319113e+03  1.42319283e+03  4.60e-04 6.60e-09  4.24e-09   589s
 209   1.42319112e+03  1.42319283e+03  4.61e-04 6.60e-09  4.24e-09   593s
 210   1.42319115e+03  1.42319283e+03  4.67e-04 6.60e-09  4.23e-09   597s
 211   1.42319115e+03  1.42319283e+03  4.79e-04 6.59e-09  4.22e-09   603s
 212   1.42319114e+03  1.42319283e+03  4.80e-04 6.59e-09  4.23e-09   608s
 213   1.42319113e+03  1.42319283e+03  4.81e-04 6.59e-09  4.23e-09   613s
 214   1.42319118e+03  1.42319282e+03  4.76e-04 6.49e-09  4.18e-09   620s
 215   1.42319128e+03  1.42319282e+03  4.72e-04 6.39e-09  4.10e-09   625s
 216   1.42319147e+03  1.42319282e+03  4.61e-04 6.28e-09  4.04e-09   631s
 217   1.42319150e+03  1.42319282e+03  4.62e-04 6.26e-09  4.02e-09   639s

Barrier performed 217 iterations in 638.58 seconds (152.02 work units)
Sub-optimal termination - objective 1.42322114e+03

Optimization finished!
Restarting optimization for throughput iteration 1...
Gurobi Optimizer version 10.0.3 build v10.0.3rc0 (linux64)

CPU model: Intel(R) Xeon(R) Gold 6146 CPU @ 3.20GHz, instruction set [SSE2|AVX|AVX2|AVX512]
Thread count: 24 physical cores, 48 logical processors, using up to 24 threads

Optimize a model with 5730 rows, 2726 columns and 15619980 nonzeros
Model fingerprint: 0x07b93e91
Coefficient statistics:
  Matrix range     [2e-12, 6e-04]
  Objective range  [4e-03, 1e+00]
  Bounds range     [1e+00, 1e+00]
  RHS range        [7e-06, 7e-06]
Presolve removed 0 rows and 0 columns (presolve time = 6s) ...
Presolve time: 10.91s
Presolved: 2726 rows, 8456 columns, 15622706 nonzeros
Ordering time: 0.09s

Barrier statistics:
 AA' NZ     : 3.714e+06
 Factor NZ  : 3.717e+06 (roughly 34 MB of memory)
 Factor Ops : 6.756e+09 (less than 1 second per iteration)
 Threads    : 24

                  Objective                Residual
Iter       Primal          Dual         Primal    Dual     Compl     Time
   0   5.46874865e+03  0.00000000e+00  0.00e+00 0.00e+00  9.52e-01    17s
   1   2.86059023e+03  7.15214388e+02  0.00e+00 1.45e-01  3.24e-01    20s
   2   2.00029328e+03  1.35516152e+03  0.00e+00 4.70e-02  9.54e-02    23s
   3   1.75405551e+03  1.41865091e+03  0.00e+00 2.91e-02  5.07e-02    27s
   4   1.64931355e+03  1.43475008e+03  0.00e+00 2.31e-02  3.48e-02    30s
   5   1.61160241e+03  1.43844329e+03  0.00e+00 2.09e-02  2.98e-02    32s
   6   1.57181119e+03  1.44723599e+03  0.00e+00 1.65e-02  2.36e-02    34s
   7   1.52136256e+03  1.44627241e+03  0.00e+00 1.47e-02  1.99e-02    37s
   8   1.48383953e+03  1.44196207e+03  0.00e+00 1.15e-02  1.56e-02    40s
   9   1.47154739e+03  1.43882377e+03  0.00e+00 1.10e-02  1.47e-02    42s
  10   1.46280705e+03  1.43732761e+03  0.00e+00 1.06e-02  1.40e-02    43s
  11   1.43228734e+03  1.43446895e+03  0.00e+00 9.95e-03  1.22e-02    45s
  12   1.41031370e+03  1.41879814e+03  0.00e+00 8.05e-03  1.02e-02    48s
  13   1.38980427e+03  1.41129500e+03  0.00e+00 7.31e-03  8.73e-03    50s
  14   1.37827997e+03  1.40595297e+03  0.00e+00 6.80e-03  7.93e-03    52s
  15   1.36096024e+03  1.40014137e+03  0.00e+00 6.27e-03  6.73e-03    56s
  16   1.35443322e+03  1.39609084e+03  0.00e+00 5.91e-03  6.33e-03    58s
  17   1.34907362e+03  1.38728197e+03  0.00e+00 5.16e-03  5.72e-03    61s
  18   1.34141987e+03  1.37740252e+03  0.00e+00 4.30e-03  4.86e-03    63s
  19   1.33602040e+03  1.37225418e+03  0.00e+00 3.95e-03  4.58e-03    64s
  20   1.32461228e+03  1.36547605e+03  0.00e+00 3.49e-03  3.77e-03    65s
  21   1.32131293e+03  1.35060991e+03  0.00e+00 2.60e-03  2.98e-03    66s
  22   1.31406626e+03  1.34543816e+03  0.00e+00 2.33e-03  2.41e-03    66s
  23   1.31185699e+03  1.33751530e+03  0.00e+00 1.92e-03  2.05e-03    67s
  24   1.31128430e+03  1.32861379e+03  0.00e+00 1.45e-03  1.73e-03    68s
  25   1.30933292e+03  1.32651695e+03  0.00e+00 1.34e-03  1.53e-03    69s
  26   1.30753376e+03  1.32387737e+03  0.00e+00 1.20e-03  1.32e-03    70s
  27   1.30693144e+03  1.32306176e+03  0.00e+00 1.16e-03  1.28e-03    71s
  28   1.30527443e+03  1.31871868e+03  0.00e+00 9.49e-04  1.04e-03    72s
  29   1.30453488e+03  1.31630944e+03  0.00e+00 8.29e-04  9.16e-04    72s
  30   1.30292137e+03  1.31434681e+03  0.00e+00 7.34e-04  7.45e-04    73s
  31   1.30138060e+03  1.31175508e+03  0.00e+00 6.02e-04  5.38e-04    73s
  32   1.30048668e+03  1.31017022e+03  0.00e+00 5.28e-04  4.25e-04    74s
  33   1.30011832e+03  1.30833062e+03  0.00e+00 4.40e-04  3.47e-04    75s
  34   1.29981784e+03  1.30718169e+03  0.00e+00 3.86e-04  3.03e-04    76s
  35   1.29956857e+03  1.30610346e+03  0.00e+00 3.35e-04  2.58e-04    76s
  36   1.29944898e+03  1.30379947e+03  0.00e+00 2.31e-04  1.93e-04    77s
  37   1.29914481e+03  1.30226729e+03  1.32e-05 1.60e-04  1.25e-04    78s
  38   1.29907088e+03  1.30182206e+03  2.29e-05 1.40e-04  1.08e-04    80s
  39   1.29894552e+03  1.30072198e+03  2.42e-05 9.04e-05  7.08e-05    81s
  40   1.29885385e+03  1.30015194e+03  1.82e-05 6.50e-05  4.94e-05    82s
  41   1.29880985e+03  1.29996542e+03  3.18e-05 5.68e-05  4.13e-05    83s
  42   1.29875630e+03  1.29962745e+03  7.73e-05 4.16e-05  2.84e-05    84s
  43   1.29875626e+03  1.29962294e+03  1.37e-04 4.14e-05  2.82e-05    86s
  44   1.29874505e+03  1.29945903e+03  1.92e-04 3.41e-05  2.33e-05    88s
  45   1.29874314e+03  1.29943579e+03  1.49e-04 3.31e-05  1.87e-05    89s
  46   1.29873737e+03  1.29938239e+03  1.36e-04 3.07e-05  1.72e-05    91s
  47   1.29873066e+03  1.29926862e+03  1.61e-04 2.56e-05  1.45e-05    92s
  48   1.29873079e+03  1.29926421e+03  1.82e-04 2.54e-05  1.44e-05    93s
  49   1.29872649e+03  1.29919500e+03  1.88e-04 2.24e-05  1.28e-05    94s
  50   1.29872610e+03  1.29919290e+03  1.85e-04 2.23e-05  1.26e-05    95s
  51   1.29872484e+03  1.29915795e+03  2.44e-04 2.07e-05  1.18e-05    98s
  52   1.29872436e+03  1.29914568e+03  2.26e-04 2.02e-05  1.15e-05    99s
  53   1.29872398e+03  1.29913529e+03  2.42e-04 1.97e-05  1.12e-05   100s
  54   1.29872174e+03  1.29912687e+03  3.01e-04 1.94e-05  1.09e-05   101s
  55   1.29872054e+03  1.29911153e+03  2.79e-04 1.87e-05  1.05e-05   102s
  56   1.29871969e+03  1.29907946e+03  2.52e-04 1.73e-05  9.81e-06   103s
  57   1.29871990e+03  1.29907904e+03  2.54e-04 1.72e-05  9.80e-06   105s
  58   1.29871898e+03  1.29903582e+03  2.45e-04 1.53e-05  8.92e-06   106s
  59   1.29871717e+03  1.29902286e+03  2.15e-04 1.48e-05  8.51e-06   107s
  60   1.29871620e+03  1.29901521e+03  1.80e-04 1.44e-05  8.27e-06   108s
  61   1.29871531e+03  1.29900349e+03  1.74e-04 1.39e-05  8.00e-06   110s
  62   1.29871461e+03  1.29899648e+03  1.81e-04 1.36e-05  7.80e-06   111s
  63   1.29871484e+03  1.29899632e+03  1.82e-04 1.36e-05  7.80e-06   112s
  64   1.29871294e+03  1.29898995e+03  2.17e-04 1.33e-05  7.47e-06   113s
  65   1.29871219e+03  1.29898147e+03  2.37e-04 1.29e-05  7.22e-06   114s
  66   1.29871193e+03  1.29897806e+03  2.30e-04 1.28e-05  7.12e-06   115s
  67   1.29871147e+03  1.29897321e+03  2.29e-04 1.26e-05  7.00e-06   116s
  68   1.29871041e+03  1.29896244e+03  1.80e-04 1.21e-05  6.67e-06   117s
  69   1.29871026e+03  1.29896220e+03  1.72e-04 1.21e-05  6.66e-06   118s
  70   1.29871010e+03  1.29896122e+03  1.75e-04 1.20e-05  6.64e-06   119s
  71   1.29870742e+03  1.29893219e+03  1.53e-04 1.08e-05  5.90e-06   121s
  72   1.29870728e+03  1.29893143e+03  1.52e-04 1.07e-05  5.88e-06   122s
  73   1.29870751e+03  1.29893141e+03  1.68e-04 1.07e-05  5.88e-06   123s
  74   1.29870713e+03  1.29891845e+03  2.11e-04 1.01e-05  5.58e-06   124s
  75   1.29870667e+03  1.29891200e+03  2.12e-04 9.86e-06  5.44e-06   125s
  76   1.29870674e+03  1.29891144e+03  2.14e-04 9.83e-06  5.42e-06   126s
  77   1.29870719e+03  1.29891107e+03  2.34e-04 9.82e-06  5.41e-06   129s
  78   1.29870491e+03  1.29890333e+03  2.50e-04 9.48e-06  5.20e-06   130s
  79   1.29870342e+03  1.29889305e+03  2.19e-04 9.02e-06  4.97e-06   131s
  80   1.29870300e+03  1.29889078e+03  2.13e-04 8.92e-06  4.91e-06   132s
  81   1.29870261e+03  1.29888302e+03  2.54e-04 8.58e-06  4.74e-06   133s
  82   1.29870156e+03  1.29886364e+03  3.33e-04 7.71e-06  4.27e-06   134s
  83   1.29870148e+03  1.29886285e+03  3.29e-04 7.68e-06  4.25e-06   135s
  84   1.29870113e+03  1.29886203e+03  3.86e-04 7.64e-06  4.22e-06   136s
  85   1.29870068e+03  1.29885712e+03  3.48e-04 7.42e-06  4.09e-06   137s
  86   1.29870041e+03  1.29885374e+03  3.33e-04 7.27e-06  4.01e-06   139s
  87   1.29869994e+03  1.29885074e+03  2.58e-04 7.14e-06  3.90e-06   140s
  88   1.29869990e+03  1.29884963e+03  2.58e-04 7.09e-06  3.88e-06   141s
  89   1.29869956e+03  1.29884959e+03  2.57e-04 7.09e-06  3.88e-06   142s
  90   1.29869968e+03  1.29884958e+03  2.49e-04 7.09e-06  3.88e-06   143s
  91   1.29869988e+03  1.29884006e+03  2.60e-04 6.67e-06  3.67e-06   144s
  92   1.29870029e+03  1.29883982e+03  2.60e-04 6.66e-06  3.66e-06   145s
  93   1.29870035e+03  1.29883982e+03  2.82e-04 6.66e-06  3.66e-06   146s
  94   1.29870024e+03  1.29883377e+03  2.99e-04 6.39e-06  3.54e-06   147s
  95   1.29870025e+03  1.29882986e+03  2.79e-04 6.22e-06  3.46e-06   148s
  96   1.29870074e+03  1.29882542e+03  4.25e-04 6.03e-06  3.35e-06   150s
  97   1.29869933e+03  1.29880727e+03  4.53e-04 5.22e-06  2.87e-06   151s
  98   1.29869943e+03  1.29880727e+03  4.55e-04 5.22e-06  2.87e-06   153s
  99   1.29869921e+03  1.29880499e+03  4.17e-04 5.12e-06  2.82e-06   154s
 100   1.29869898e+03  1.29880493e+03  3.99e-04 5.11e-06  2.82e-06   155s
 101   1.29869899e+03  1.29880493e+03  3.98e-04 5.11e-06  2.82e-06   156s
 102   1.29869907e+03  1.29880492e+03  4.06e-04 5.11e-06  2.82e-06   157s
 103   1.29869912e+03  1.29880473e+03  4.20e-04 5.10e-06  2.81e-06   157s
 104   1.29869891e+03  1.29880473e+03  4.18e-04 5.10e-06  2.81e-06   158s
 105   1.29869817e+03  1.29879397e+03  3.43e-04 4.63e-06  2.55e-06   160s
 106   1.29869773e+03  1.29877824e+03  3.39e-04 3.94e-06  2.20e-06   161s
 107   1.29869693e+03  1.29877507e+03  2.66e-04 3.80e-06  2.11e-06   163s
 108   1.29869649e+03  1.29877173e+03  2.74e-04 3.65e-06  2.04e-06   165s
 109   1.29869622e+03  1.29877023e+03  2.62e-04 3.59e-06  2.00e-06   166s
 110   1.29869537e+03  1.29877021e+03  3.10e-04 3.59e-06  2.00e-06   167s
 111   1.29869478e+03  1.29876936e+03  3.15e-04 3.55e-06  1.97e-06   167s
 112   1.29869468e+03  1.29876170e+03  2.81e-04 3.21e-06  1.82e-06   169s
 113   1.29869421e+03  1.29876065e+03  3.25e-04 3.17e-06  1.79e-06   170s
 114   1.29869413e+03  1.29875951e+03  3.95e-04 3.12e-06  1.76e-06   171s
 115   1.29869383e+03  1.29875787e+03  6.97e-04 3.05e-06  1.73e-06   171s
 116   1.29869337e+03  1.29875722e+03  7.73e-04 3.02e-06  1.70e-06   172s
 117   1.29869349e+03  1.29875688e+03  7.99e-04 3.00e-06  1.68e-06   173s
 118   1.29869351e+03  1.29875688e+03  8.03e-04 3.00e-06  1.68e-06   174s
 119   1.29869299e+03  1.29875666e+03  8.22e-04 2.99e-06  1.67e-06   174s
 120   1.29869310e+03  1.29875664e+03  8.35e-04 2.99e-06  1.67e-06   175s
 121   1.29869289e+03  1.29875601e+03  8.22e-04 2.96e-06  1.65e-06   176s
 122   1.29869280e+03  1.29875442e+03  7.95e-04 2.89e-06  1.61e-06   176s
 123   1.29869253e+03  1.29875228e+03  7.21e-04 2.80e-06  1.54e-06   177s
 124   1.29869317e+03  1.29874844e+03  7.05e-04 2.63e-06  1.45e-06   178s
 125   1.29869298e+03  1.29874776e+03  6.86e-04 2.60e-06  1.43e-06   179s
 126   1.29869295e+03  1.29874421e+03  6.32e-04 2.45e-06  1.34e-06   180s
 127   1.29869282e+03  1.29874358e+03  6.31e-04 2.42e-06  1.33e-06   180s
 128   1.29869272e+03  1.29874357e+03  6.39e-04 2.42e-06  1.33e-06   181s
 129   1.29869278e+03  1.29874244e+03  6.26e-04 2.37e-06  1.31e-06   182s
 130   1.29869274e+03  1.29874087e+03  6.29e-04 2.30e-06  1.28e-06   182s
 131   1.29869273e+03  1.29874044e+03  6.46e-04 2.28e-06  1.27e-06   183s
 132   1.29869264e+03  1.29873861e+03  6.10e-04 2.20e-06  1.22e-06   184s
 133   1.29869250e+03  1.29873842e+03  6.32e-04 2.19e-06  1.21e-06   184s
 134   1.29869251e+03  1.29873708e+03  6.35e-04 2.13e-06  1.18e-06   185s
 135   1.29869287e+03  1.29873707e+03  6.42e-04 2.13e-06  1.18e-06   185s
 136   1.29869275e+03  1.29873696e+03  6.30e-04 2.13e-06  1.18e-06   186s
 137   1.29869256e+03  1.29873696e+03  6.32e-04 2.13e-06  1.18e-06   187s
 138   1.29869243e+03  1.29873683e+03  6.15e-04 2.12e-06  1.18e-06   188s
 139   1.29869226e+03  1.29873601e+03  5.77e-04 2.09e-06  1.16e-06   189s
 140   1.29869248e+03  1.29873199e+03  5.61e-04 1.91e-06  1.05e-06   191s
 141   1.29869273e+03  1.29873162e+03  5.37e-04 1.90e-06  1.04e-06   192s
 142   1.29869267e+03  1.29873158e+03  5.15e-04 1.89e-06  1.04e-06   193s
 143   1.29869270e+03  1.29873147e+03  5.12e-04 1.89e-06  1.04e-06   194s
 144   1.29869265e+03  1.29873091e+03  4.98e-04 1.87e-06  1.02e-06   196s
 145   1.29869264e+03  1.29873038e+03  5.01e-04 1.84e-06  1.01e-06   197s
 146   1.29869233e+03  1.29873019e+03  5.15e-04 1.83e-06  1.00e-06   198s
 147   1.29869234e+03  1.29872984e+03  5.11e-04 1.82e-06  9.95e-07   199s
 148   1.29869212e+03  1.29872960e+03  5.13e-04 1.81e-06  9.86e-07   200s
 149   1.29869045e+03  1.29872865e+03  5.00e-04 1.77e-06  9.54e-07   202s
 150   1.29869006e+03  1.29872593e+03  4.93e-04 1.65e-06  8.96e-07   203s
 151   1.29868988e+03  1.29872414e+03  5.03e-04 1.57e-06  8.48e-07   204s
 152   1.29868923e+03  1.29872352e+03  4.90e-04 1.54e-06  8.33e-07   205s
 153   1.29868961e+03  1.29872352e+03  4.79e-04 1.54e-06  8.33e-07   205s
 154   1.29868985e+03  1.29872322e+03  4.90e-04 1.53e-06  8.26e-07   206s
 155   1.29869053e+03  1.29872178e+03  4.65e-04 1.47e-06  7.96e-07   207s
 156   1.29869076e+03  1.29872163e+03  4.67e-04 1.46e-06  7.92e-07   207s
 157   1.29869155e+03  1.29872160e+03  5.83e-04 1.46e-06  7.92e-07   208s
 158   1.29869177e+03  1.29872152e+03  5.86e-04 1.45e-06  7.90e-07   209s
 159   1.29869130e+03  1.29872020e+03  6.25e-04 1.40e-06  7.61e-07   209s
 160   1.29869147e+03  1.29871994e+03  6.32e-04 1.39e-06  7.55e-07   210s
 161   1.29869030e+03  1.29871769e+03  7.13e-04 1.29e-06  7.07e-07   212s
 162   1.29869047e+03  1.29871768e+03  7.13e-04 1.29e-06  7.07e-07   213s
 163   1.29869011e+03  1.29871768e+03  6.79e-04 1.29e-06  7.07e-07   214s
 164   1.29868953e+03  1.29871715e+03  6.41e-04 1.26e-06  6.90e-07   215s
 165   1.29868899e+03  1.29871637e+03  6.07e-04 1.23e-06  6.67e-07   216s
 166   1.29868840e+03  1.29871632e+03  5.93e-04 1.23e-06  6.64e-07   217s
 167   1.29868838e+03  1.29871628e+03  6.20e-04 1.23e-06  6.64e-07   218s
 168   1.29868846e+03  1.29871522e+03  4.53e-04 1.18e-06  6.18e-07   219s
 169   1.29868769e+03  1.29871411e+03  4.54e-04 1.13e-06  5.96e-07   220s
 170   1.29868728e+03  1.29871345e+03  4.15e-04 1.10e-06  5.83e-07   221s
 171   1.29868725e+03  1.29871330e+03  4.12e-04 1.10e-06  5.80e-07   221s
 172   1.29868682e+03  1.29871171e+03  3.26e-04 1.03e-06  5.42e-07   222s
 173   1.29868660e+03  1.29871102e+03  3.28e-04 9.98e-07  5.24e-07   223s
 174   1.29868667e+03  1.29871060e+03  3.27e-04 9.79e-07  5.15e-07   224s
 175   1.29868665e+03  1.29871049e+03  3.39e-04 9.74e-07  5.12e-07   225s
 176   1.29868672e+03  1.29871025e+03  5.25e-04 9.64e-07  4.98e-07   226s
 177   1.29868728e+03  1.29871019e+03  5.19e-04 9.61e-07  4.96e-07   226s
 178   1.29868764e+03  1.29871005e+03  4.88e-04 9.55e-07  4.93e-07   227s
 179   1.29868772e+03  1.29870970e+03  5.00e-04 9.40e-07  4.86e-07   228s
 180   1.29868654e+03  1.29870939e+03  4.95e-04 9.27e-07  4.79e-07   229s
 181   1.29868662e+03  1.29870922e+03  4.80e-04 9.20e-07  4.75e-07   231s
 182   1.29868649e+03  1.29870834e+03  4.73e-04 8.81e-07  4.57e-07   232s
 183   1.29868631e+03  1.29870803e+03  4.75e-04 8.67e-07  4.50e-07   233s
 184   1.29868621e+03  1.29870798e+03  4.79e-04 8.65e-07  4.49e-07   235s
 185   1.29868594e+03  1.29870798e+03  5.04e-04 8.65e-07  4.49e-07   236s
 186   1.29868612e+03  1.29870776e+03  4.45e-04 8.55e-07  4.43e-07   237s
 187   1.29868612e+03  1.29870776e+03  4.46e-04 8.55e-07  4.43e-07   239s
 188   1.29868718e+03  1.29870744e+03  4.64e-04 8.41e-07  4.35e-07   241s
 189   1.29868704e+03  1.29870569e+03  6.89e-04 7.64e-07  3.95e-07   243s
 190   1.29868736e+03  1.29870565e+03  7.13e-04 7.62e-07  3.93e-07   244s
 191   1.29868789e+03  1.29870543e+03  6.90e-04 7.52e-07  3.86e-07   246s
 192   1.29868790e+03  1.29870524e+03  6.86e-04 7.45e-07  3.83e-07   247s
 193   1.29868676e+03  1.29870442e+03  7.24e-04 7.08e-07  3.63e-07   249s
 194   1.29868676e+03  1.29870441e+03  7.21e-04 7.07e-07  3.62e-07   250s
 195   1.29868661e+03  1.29870429e+03  7.68e-04 7.02e-07  3.58e-07   251s
 196   1.29868688e+03  1.29870338e+03  6.95e-04 6.62e-07  3.39e-07   253s
 197   1.29868666e+03  1.29870334e+03  6.86e-04 6.61e-07  3.38e-07   254s
 198   1.29868680e+03  1.29870331e+03  6.82e-04 6.60e-07  3.38e-07   255s
 199   1.29868697e+03  1.29870290e+03  6.74e-04 6.42e-07  3.30e-07   257s
 200   1.29868716e+03  1.29870291e+03  6.76e-04 6.42e-07  3.30e-07   258s
 201   1.29868715e+03  1.29870290e+03  6.92e-04 6.42e-07  3.30e-07   260s
 202   1.29868776e+03  1.29870288e+03  7.20e-04 6.41e-07  3.29e-07   262s
 203   1.29868778e+03  1.29870286e+03  7.09e-04 6.40e-07  3.28e-07   263s

Barrier performed 203 iterations in 263.19 seconds (132.96 work units)
Sub-optimal termination - objective 1.29872610e+03

/user/bnickson/GitHub/LUVex_TelAps/aplc_optimization/surveys/usort_offaxis_survey_N0128_telserv3/FPM39_IWA38/drivers/07_USORT_N128_FPM390M0150_IWA0380_OWA01400_C10_BW15_Nlam5_LS_ID_ID00_ODOD09_ls_0_ovsamp16_N.py:102: DeprecationWarning: circular_aperture is deprecated. Its new name is make_circular_aperture.
  dark_zone_mask = circular_aperture(img_owa * 2)(focal_grid) - circular_aperture(img_iwa * 2)(focal_grid)
/user/bnickson/GitHub/LUVex_TelAps/aplc_optimization/surveys/usort_offaxis_survey_N0128_telserv3/FPM39_IWA38/drivers/07_USORT_N128_FPM390M0150_IWA0380_OWA01400_C10_BW15_Nlam5_LS_ID_ID00_ODOD09_ls_0_ovsamp16_N.py:110: DeprecationWarning: circular_aperture is deprecated. Its new name is make_circular_aperture.
  focal_plane_mask = 1 - evaluate_supersampled(circular_aperture(2 * fpm_radius), focal_mask_grid, 8)
WARNING: VerifyWarning: Keyword name 'LS_ALIGN_TOl' is greater than 8 characters or contains characters not allowed by the FITS standard; a HIERARCH card will be created. [astropy.io.fits.card]
WARNING: VerifyWarning: Keyword name 'LS_NUM_STOPS' is greater than 8 characters or contains characters not allowed by the FITS standard; a HIERARCH card will be created. [astropy.io.fits.card]
WARNING: VerifyWarning: Keyword name 'PROG_START' is greater than 8 characters or contains characters not allowed by the FITS standard; a HIERARCH card will be created. [astropy.io.fits.card]
WARNING: VerifyWarning: Keyword name 'PROG_EDGE' is greater than 8 characters or contains characters not allowed by the FITS standard; a HIERARCH card will be created. [astropy.io.fits.card]
WARNING: VerifyWarning: Keyword name 'THRPT_ITER' is greater than 8 characters or contains characters not allowed by the FITS standard; a HIERARCH card will be created. [astropy.io.fits.card]
WARNING: VerifyWarning: Keyword name 'THRPT_ESTIM' is greater than 8 characters or contains characters not allowed by the FITS standard; a HIERARCH card will be created. [astropy.io.fits.card]
WARNING: VerifyWarning: Keyword name 'MAX_THRPT' is greater than 8 characters or contains characters not allowed by the FITS standard; a HIERARCH card will be created. [astropy.io.fits.card]
WARNING: VerifyWarning: Keyword name 'SLV_THRDS' is greater than 8 characters or contains characters not allowed by the FITS standard; a HIERARCH card will be created. [astropy.io.fits.card]
WARNING: VerifyWarning: Keyword name 'SLV_XOVER' is greater than 8 characters or contains characters not allowed by the FITS standard; a HIERARCH card will be created. [astropy.io.fits.card]
Optimization finished!
